c graph converted from Delauney Triangulation format
c weights on edges removed (lost)
x low 0.00
p edge 150 436
n 0 1.00
n 84 1.00
n 52 1.00
n 136 1.00
n 14 1.00
n 109 1.00
n 19 1.00
n 1 1.00
n 67 1.00
n 34 1.00
n 22 1.00
n 49 1.00
n 61 1.00
n 76 1.00
n 79 1.00
n 137 1.00
n 103 1.00
n 53 1.00
n 2 1.00
n 117 1.00
n 72 1.00
n 58 1.00
n 68 1.00
n 3 1.00
n 59 1.00
n 13 1.00
n 142 1.00
n 115 1.00
n 92 1.00
n 4 1.00
n 85 1.00
n 42 1.00
n 118 1.00
n 5 1.00
n 148 1.00
n 133 1.00
n 46 1.00
n 6 1.00
n 77 1.00
n 81 1.00
n 25 1.00
n 31 1.00
n 116 1.00
n 7 1.00
n 21 1.00
n 111 1.00
n 113 1.00
n 74 1.00
n 105 1.00
n 41 1.00
n 8 1.00
n 119 1.00
n 145 1.00
n 36 1.00
n 60 1.00
n 9 1.00
n 35 1.00
n 44 1.00
n 91 1.00
n 140 1.00
n 10 1.00
n 149 1.00
n 51 1.00
n 95 1.00
n 83 1.00
n 11 1.00
n 48 1.00
n 39 1.00
n 45 1.00
n 124 1.00
n 12 1.00
n 106 1.00
n 129 1.00
n 64 1.00
n 66 1.00
n 78 1.00
n 56 1.00
n 73 1.00
n 139 1.00
n 26 1.00
n 15 1.00
n 50 1.00
n 62 1.00
n 65 1.00
n 134 1.00
n 16 1.00
n 24 1.00
n 17 1.00
n 104 1.00
n 28 1.00
n 18 1.00
n 98 1.00
n 63 1.00
n 20 1.00
n 138 1.00
n 121 1.00
n 69 1.00
n 101 1.00
n 88 1.00
n 29 1.00
n 112 1.00
n 90 1.00
n 23 1.00
n 131 1.00
n 141 1.00
n 89 1.00
n 33 1.00
n 27 1.00
n 100 1.00
n 37 1.00
n 38 1.00
n 87 1.00
n 147 1.00
n 40 1.00
n 30 1.00
n 146 1.00
n 32 1.00
n 135 1.00
n 99 1.00
n 80 1.00
n 144 1.00
n 108 1.00
n 57 1.00
n 55 1.00
n 70 1.00
n 123 1.00
n 125 1.00
n 114 1.00
n 54 1.00
n 128 1.00
n 43 1.00
n 102 1.00
n 127 1.00
n 126 1.00
n 96 1.00
n 47 1.00
n 132 1.00
n 94 1.00
n 71 1.00
n 82 1.00
n 86 1.00
n 97 1.00
n 120 1.00
n 110 1.00
n 75 1.00
n 130 1.00
n 122 1.00
n 93 1.00
n 143 1.00
n 107 1.00
e 0 84
e 0 52
e 0 136
e 0 14
e 0 109
e 0 19
e 1 67
e 1 34
e 1 22
e 1 49
e 1 61
e 1 76
e 1 79
e 1 137
e 1 103
e 1 53
e 2 117
e 2 72
e 2 58
e 2 68
e 3 59
e 3 13
e 3 142
e 3 115
e 3 92
e 4 85
e 4 42
e 4 118
e 5 53
e 5 148
e 5 133
e 5 46
e 6 77
e 6 81
e 6 25
e 6 31
e 6 116
e 6 136
e 7 21
e 7 111
e 7 113
e 7 74
e 7 133
e 7 105
e 7 41
e 8 119
e 8 145
e 8 36
e 8 81
e 8 77
e 8 60
e 8 25
e 9 35
e 9 44
e 9 91
e 9 13
e 9 140
e 10 149
e 10 51
e 10 95
e 10 83
e 11 115
e 11 92
e 11 48
e 11 39
e 11 45
e 11 124
e 12 106
e 12 129
e 12 64
e 12 66
e 12 14
e 12 78
e 13 35
e 13 56
e 13 73
e 13 68
e 13 140
e 13 139
e 13 142
e 13 59
e 14 106
e 14 26
e 14 78
e 14 84
e 14 109
e 15 50
e 15 62
e 15 65
e 15 134
e 15 119
e 16 105
e 16 113
e 16 24
e 16 41
e 17 104
e 17 48
e 17 119
e 17 36
e 17 28
e 17 45
e 18 98
e 18 91
e 18 104
e 18 65
e 19 109
e 19 63
e 19 41
e 19 136
e 19 24
e 20 138
e 20 121
e 20 69
e 20 101
e 20 88
e 20 29
e 20 67
e 21 74
e 21 112
e 21 111
e 22 90
e 22 101
e 22 67
e 22 34
e 22 49
e 23 131
e 23 141
e 23 124
e 23 31
e 23 116
e 23 136
e 24 89
e 24 113
e 24 33
e 24 41
e 24 136
e 25 60
e 25 77
e 25 131
e 25 31
e 26 106
e 26 115
e 26 39
e 26 84
e 27 100
e 27 37
e 27 38
e 27 87
e 27 147
e 28 36
e 28 45
e 28 141
e 28 60
e 29 88
e 29 67
e 29 40
e 29 76
e 30 146
e 30 103
e 30 64
e 30 46
e 30 66
e 31 131
e 31 116
e 32 135
e 32 99
e 32 80
e 32 44
e 32 35
e 33 89
e 33 144
e 33 108
e 33 57
e 34 67
e 35 99
e 35 56
e 35 44
e 36 119
e 36 60
e 37 55
e 37 70
e 37 100
e 37 38
e 38 70
e 38 123
e 38 125
e 38 147
e 39 115
e 39 84
e 39 124
e 39 52
e 40 58
e 40 88
e 40 139
e 40 76
e 40 114
e 41 46
e 41 54
e 41 133
e 41 105
e 41 63
e 42 85
e 42 128
e 42 118
e 42 55
e 42 100
e 42 57
e 43 65
e 43 102
e 43 127
e 43 50
e 43 62
e 43 126
e 44 80
e 44 96
e 44 91
e 44 47
e 45 48
e 45 141
e 45 124
e 46 103
e 46 148
e 46 133
e 46 66
e 46 54
e 47 83
e 47 95
e 47 96
e 47 102
e 47 91
e 47 65
e 48 92
e 48 104
e 49 132
e 49 94
e 49 90
e 49 71
e 49 82
e 49 61
e 50 62
e 50 126
e 50 134
e 51 149
e 51 83
e 51 127
e 51 86
e 51 126
e 51 81
e 52 84
e 52 124
e 52 136
e 53 137
e 53 103
e 53 148
e 53 74
e 53 133
e 54 66
e 54 63
e 55 118
e 55 70
e 55 100
e 56 99
e 56 73
e 57 108
e 57 97
e 57 147
e 57 87
e 57 100
e 58 117
e 58 88
e 58 68
e 58 139
e 59 139
e 59 115
e 59 114
e 59 106
e 60 141
e 60 131
e 61 82
e 61 137
e 62 65
e 63 66
e 63 109
e 64 129
e 64 146
e 64 66
e 65 102
e 65 91
e 65 104
e 65 119
e 66 78
e 66 109
e 67 101
e 67 76
e 68 135
e 68 72
e 68 73
e 68 139
e 69 120
e 69 110
e 69 138
e 69 75
e 69 90
e 69 101
e 70 85
e 70 118
e 70 132
e 70 123
e 71 123
e 71 132
e 71 82
e 71 125
e 72 135
e 72 117
e 73 135
e 73 99
e 74 137
e 74 133
e 74 112
e 75 120
e 75 130
e 75 110
e 75 128
e 75 122
e 75 93
e 75 90
e 76 114
e 76 79
e 77 81
e 78 109
e 79 114
e 79 103
e 79 146
e 80 135
e 80 96
e 81 145
e 81 126
e 82 137
e 82 125
e 82 112
e 83 95
e 83 102
e 83 127
e 85 128
e 85 94
e 85 132
e 85 118
e 86 117
e 86 130
e 86 135
e 86 143
e 86 95
e 86 149
e 87 100
e 87 147
e 88 117
e 88 121
e 89 113
e 89 144
e 90 122
e 90 101
e 90 94
e 91 140
e 91 98
e 92 104
e 92 142
e 92 115
e 93 122
e 93 128
e 93 94
e 94 122
e 94 128
e 94 132
e 95 143
e 95 149
e 95 96
e 96 135
e 96 143
e 97 125
e 97 147
e 97 107
e 97 144
e 97 108
e 98 140
e 98 142
e 98 104
e 99 135
e 102 127
e 103 148
e 103 146
e 104 142
e 104 119
e 105 113
e 106 146
e 106 114
e 106 129
e 106 115
e 107 125
e 107 112
e 107 111
e 107 144
e 107 113
e 108 144
e 110 120
e 111 112
e 111 113
e 112 125
e 112 137
e 113 144
e 114 139
e 114 146
e 116 136
e 117 130
e 117 135
e 117 121
e 119 134
e 119 145
e 120 130
e 120 138
e 121 138
e 121 130
e 123 132
e 123 125
e 124 141
e 124 136
e 125 147
e 126 127
e 126 134
e 126 145
e 128 130
e 129 146
e 130 138
e 131 141
e 134 145
e 135 143
e 140 142
